qbf_easy_train/easy_5212_SAT.qdimacs
p cnf 20 44
a 17 13 14 0
e 1 2 3 4 5 6 7 8 9 10 11 12 15 16 18 19 20 0
1 -2 -3 0
-1 2 -3 0
1 2 3 0
-1 -2 3 0
-6 -4 0
-6 -5 0
4 5 6 0
-3 -6 -7 0
3 6 -7 0
-3 6 7 0
3 -6 7 0
-9 1 0
-9 8 0
-1 -8 9 0
12 -10 0
12 -11 0
10 11 -12 0
-13 -9 0
-13 -12 0
9 12 13 0
7 -13 -14 0
-7 13 -14 0
7 13 14 0
-7 -13 14 0
-15 5 0
-15 4 0
-5 -4 15 0
16 -8 0
16 15 0
8 -15 -16 0
18 -4 0
18 -17 0
4 17 -18 0
-19 16 0
-19 18 0
-16 -18 19 0
20 -14 0
20 -19 0
14 19 -20 0
9 3 18 0
-15 -1 -13 -8 0
19 -9 8 -10 0
-14 11 -1 0
20 0
