sat_easy_train/easy_5212_SAT.dimacs
p cnf 98 309
-4 -2 0
-4 3 0
2 -3 4 0
6 4 0
6 5 0
-4 -5 -6 0
9 7 0
9 8 0
-7 -8 -9 0
6 9 -10 0
-6 -9 -10 0
6 -9 10 0
-6 9 10 0
-12 -5 0
-12 -11 0
5 11 12 0
-15 14 0
-15 7 0
-14 -7 15 0
16 -13 0
16 -15 0
13 15 -16 0
17 -12 0
17 -16 0
12 16 -17 0
18 -10 0
18 -17 0
10 17 -18 0
19 -1 0
19 -18 0
1 18 -19 0
-20 7 0
-20 17 0
-7 -17 20 0
21 19 0
21 -20 0
-19 20 -21 0
23 15 0
23 -22 0
-15 22 -23 0
23 -7 -24 0
-23 7 -24 0
23 7 24 0
-23 -7 24 0
-25 26 -27 0
25 -26 -27 0
-25 -26 27 0
25 26 27 0
8 26 -28 0
-8 -26 -28 0
8 -26 28 0
-8 26 28 0
-29 -27 0
-29 -28 0
27 28 29 0
-31 29 0
-31 -30 0
-29 30 31 0
-32 24 0
-32 -31 0
-24 31 32 0
33 -5 0
33 -4 0
5 4 -33 0
11 33 -34 0
-11 -33 -34 0
11 -33 34 0
-11 33 34 0
-35 -32 0
-35 34 0
32 -34 35 0
-7 -3 -36 0
7 3 -36 0
-7 3 36 0
7 -3 36 0
37 -35 0
37 -36 0
35 36 -37 0
-15 14 -38 0
15 -14 -38 0
-15 -14 38 0
15 14 38 0
-39 26 0
-39 -38 0
-26 38 39 0
40 39 0
40 39 0
-39 -40 0
41 -37 0
41 -40 0
37 40 -41 0
42 -28 0
42 -22 0
28 22 -42 0
43 -6 0
43 -42 0
6 42 -43 0
-44 -39 0
-44 23 0
39 -23 44 0
45 30 0
45 -9 0
-30 9 -45 0
46 44 0
46 45 0
-44 -45 -46 0
47 -43 0
47 46 0
43 -46 -47 0
48 -41 0
48 47 0
41 -47 -48 0
49 16 0
49 -14 0
-16 14 -49 0
50 -42 0
50 33 0
42 -33 -50 0
-15 -51 -52 0
15 51 -52 0
-15 51 52 0
15 -51 52 0
53 52 0
53 25 0
-52 -25 -53 0
-50 -53 -54 0
50 53 -54 0
-50 53 54 0
50 -53 54 0
55 49 0
55 -54 0
-49 54 -55 0
45 -56 0
-45 -56 0
-52 39 -57 0
52 -39 -57 0
-52 -39 57 0
52 39 57 0
56 -57 -58 0
-56 57 -58 0
56 57 58 0
-56 -57 58 0
-60 59 0
-60 -9 0
-59 9 60 0
61 60 0
61 -22 0
-60 22 -61 0
-62 -58 0
-62 61 0
58 -61 62 0
-63 -5 0
-63 -62 0
5 62 63 0
-64 63 0
-64 -16 0
-63 16 64 0
55 64 -65 0
-55 -64 -65 0
55 -64 65 0
-55 64 65 0
-66 16 0
-66 -25 0
-16 25 66 0
-67 15 0
-67 -66 0
-15 66 67 0
-68 -8 0
-68 -8 0
8 68 0
-68 -57 -69 0
68 57 -69 0
-68 57 69 0
68 -57 69 0
70 -69 0
70 -2 0
69 2 -70 0
11 -3 -71 0
-11 3 -71 0
11 3 71 0
-11 -3 71 0
-72 3 0
-72 -51 0
-3 51 72 0
73 71 0
73 -72 0
-71 72 -73 0
-74 -70 0
-74 -73 0
70 73 74 0
28 72 -75 0
-28 -72 -75 0
28 -72 75 0
-28 72 75 0
-76 -13 0
-76 -5 0
13 5 76 0
-77 -16 0
-77 3 0
16 -3 77 0
76 -77 -78 0
-76 77 -78 0
76 77 78 0
-76 -77 78 0
75 -78 -79 0
-75 78 -79 0
75 78 79 0
-75 -78 79 0
80 -61 0
80 -4 0
61 4 -80 0
-81 -79 0
-81 80 0
79 -80 81 0
-82 -74 0
-82 81 0
74 -81 82 0
83 -67 0
83 82 0
67 -82 -83 0
-84 -14 0
-84 -45 0
14 45 84 0
83 -84 -85 0
-83 84 -85 0
83 84 85 0
-83 -84 85 0
86 14 -87 0
-86 -14 -87 0
86 -14 87 0
-86 14 87 0
59 -87 -88 0
-59 87 -88 0
59 87 88 0
-59 -87 88 0
-89 85 0
-89 -88 0
-85 88 89 0
90 65 0
90 89 0
-65 -89 -90 0
91 -48 0
91 90 0
48 -90 -91 0
28 -45 -92 0
-28 45 -92 0
28 45 92 0
-28 -45 92 0
-93 -28 0
-93 44 0
28 -44 93 0
92 93 -94 0
-92 -93 -94 0
92 -93 94 0
-92 93 94 0
95 -9 0
95 61 0
9 -61 -95 0
-96 94 0
-96 -95 0
-94 95 96 0
91 -96 -97 0
-91 96 -97 0
91 96 97 0
-91 -96 97 0
98 21 0
98 -97 0
-21 97 -98 0
31 -97 -65 0
-94 71 -4 79 0
-76 18 -53 51 -41 0
45 -72 98 28 0
-73 -79 24 10 71 0
32 18 94 -25 95 0
-88 -18 -56 0
16 83 0
-42 -72 9 63 39 0
-95 -82 21 0
-46 -45 75 0
97 -51 0
90 -48 64 -32 0
4 15 -58 18 80 85 0
68 98 -18 15 46 0
12 66 -49 81 -6 0
41 -94 -82 20 -32 0
86 -25 39 -20 -88 -7 0
-22 58 -48 -71 -6 0
-5 79 -43 0
-77 -79 -85 0
24 11 -49 33 -70 0
-61 13 0
-59 -45 91 43 84 18 0
-53 84 -59 9 0
61 65 0
-38 -26 0
-21 -75 91 5 24 0
-98 -75 27 88 0
-73 -27 19 -30 -61 10 0
68 34 -59 0
-74 39 0
98 82 70 -38 0
-17 64 -88 0
-30 43 94 16 -14 -42 0
86 2 4 38 -96 0
16 -79 0
56 44 78 -31 0
70 -39 -82 0
47 13 0
98 0
